ALGO = A
ISTART = 1
EDIFF = 1e-5
EDIFFG = -0.01
ENCUT = 400
IBRION = 2
ICHARG = 2
ISIF = 2
ISMEAR = 0
ISPIN = 2
LORBIT = 11
LREAL = Auto
LWAVE = True
MAGMOM = 215*0.6
NUPDOWN = 2
NELM = 100
NSW = 99
PREC = Accurate
PRECFOCK = Fast
HFSCREEN = 0.2
LHFCALC = True
SIGMA = 0.05
NBANDS = 450
