pymatgen v1.1 with grid density = 2210 / atom
0
G
1 1 1
