Si1 C214                                
    1.000000000000000     
    10.6460609999999996    0.0000000000000000    0.0000000000000000
     0.0000000000000000   10.6460609999999996    0.0000000000000000
     0.0000000000000000    0.0000000000000000   10.6460609999999996
  Si              C             
     1   214
Direct
  0.5000000000000000  0.5000000000000000  0.5000000000000000
  0.0414868991178190  0.0414868991178190  0.8751201960746805
  0.0421124792945449  0.0421124792945449  0.2084278132549123
  0.0416100382493716  0.0416100382493716  0.5418149899157458
  0.0412671787758728  0.3748423925881551  0.8758465506132390
  0.0426127775113837  0.3753389454508954  0.2088120718736293
  0.0418889420572243  0.3750534536780359  0.5419357107764450
  0.0408478355200654  0.7082343325546130  0.8747537645982084
  0.0415756478878555  0.7087398255938778  0.2079199055947735
  0.0410167012803910  0.7084840460467774  0.5415229245190010
  0.3748423925881551  0.0412671787758728  0.8758465506132390
  0.3753389454508954  0.0426127775113837  0.2088120718736293
  0.3750534536780359  0.0418889420572243  0.5419357107764450
  0.3749254317924135  0.3749254317924135  0.8754964310113829
  0.3766323386135340  0.3766323386135340  0.2104148817376221
  0.3707033162257156  0.3707033162257156  0.5521581965300680
  0.3741640626043670  0.7084021941112868  0.8753073379764102
  0.3751868501308005  0.7106542689177233  0.2062514636695838
  0.3717794965548463  0.7104298587056207  0.5426427249965067
  0.7082343325546130  0.0408478355200654  0.8747537645982084
  0.7087398255938778  0.0415756478878555  0.2079199055947735
  0.7084840460467774  0.0410167012803910  0.5415229245190010
  0.7084021941112868  0.3741640626043670  0.8753073379764102
  0.7106542689177233  0.3751868501308005  0.2062514636695838
  0.7104298587056207  0.3717794965548463  0.5426427249965067
  0.7072684947949595  0.7072684947949595  0.8734486514448776
  0.7086993864615500  0.7086993864615500  0.2072072228828888
  0.7063243346786413  0.7063243346786413  0.5387439550493490
  0.7906990090949311  0.7906990090949311  0.7906990090949311
  0.7917092715141516  0.7917092715141516  0.1240973790087320
  0.7916404289710907  0.7916404289710907  0.4577029185031009
  0.7917092715141516  0.1240973790087320  0.7917092715141516
  0.7921496765385997  0.1249417947275480  0.1249417947275480
  0.7931370262052763  0.1235892196237776  0.4581585390741417
  0.7916404289710907  0.4577029185031009  0.7916404289710907
  0.7931370262052763  0.4581585390741417  0.1235892196237776
  0.7916715522259844  0.4579375113396584  0.4579375113396584
  0.1240973790087320  0.7917092715141516  0.7917092715141516
  0.1249417947275480  0.7921496765385997  0.1249417947275480
  0.1235892196237776  0.7931370262052763  0.4581585390741417
  0.1249417947275480  0.1249417947275480  0.7921496765385997
  0.1255871719330673  0.1255871719330673  0.1255871719330673
  0.1252552634676087  0.1252552634676087  0.4589354393348865
  0.1235892196237776  0.4581585390741417  0.7931370262052763
  0.1252552634676087  0.4589354393348865  0.1252552634676087
  0.1255731455436272  0.4588807589280799  0.4588807589280799
  0.4577029185031009  0.7916404289710907  0.7916404289710907
  0.4581585390741417  0.7931370262052763  0.1235892196237776
  0.4579375113396584  0.7916715522259844  0.4579375113396584
  0.4581585390741417  0.1235892196237776  0.7931370262052763
  0.4589354393348865  0.1252552634676087  0.1252552634676087
  0.4588807589280799  0.1255731455436272  0.4588807589280799
  0.4579375113396584  0.4579375113396584  0.7916715522259844
  0.4588807589280799  0.4588807589280799  0.1255731455436272
  0.0414868991178190  0.8751201960746805  0.0414868991178190
  0.0412671787758728  0.8758465506132390  0.3748423925881551
  0.0408478355200654  0.8747537645982084  0.7082343325546130
  0.0421124792945449  0.2084278132549123  0.0421124792945449
  0.0426127775113837  0.2088120718736293  0.3753389454508954
  0.0415756478878555  0.2079199055947735  0.7087398255938778
  0.0416100382493716  0.5418149899157458  0.0416100382493716
  0.0418889420572243  0.5419357107764450  0.3750534536780359
  0.0410167012803910  0.5415229245190010  0.7084840460467774
  0.3748423925881551  0.8758465506132390  0.0412671787758728
  0.3749254317924135  0.8754964310113829  0.3749254317924135
  0.3741640626043670  0.8753073379764102  0.7084021941112868
  0.3753389454508954  0.2088120718736293  0.0426127775113837
  0.3766323386135340  0.2104148817376221  0.3766323386135340
  0.3751868501308005  0.2062514636695838  0.7106542689177233
  0.3750534536780359  0.5419357107764450  0.0418889420572243
  0.3707033162257156  0.5521581965300680  0.3707033162257156
  0.3717794965548463  0.5426427249965067  0.7104298587056207
  0.7082343325546130  0.8747537645982084  0.0408478355200654
  0.7084021941112868  0.8753073379764102  0.3741640626043670
  0.7072684947949595  0.8734486514448776  0.7072684947949595
  0.7087398255938778  0.2079199055947735  0.0415756478878555
  0.7106542689177233  0.2062514636695838  0.3751868501308005
  0.7086993864615500  0.2072072228828888  0.7086993864615500
  0.7084840460467774  0.5415229245190010  0.0410167012803910
  0.7104298587056207  0.5426427249965067  0.3717794965548463
  0.7063243346786413  0.5387439550493490  0.7063243346786413
  0.7915721867450876  0.9578875207054554  0.9578875207054554
  0.7920800944052263  0.9584243521121444  0.2912601744061225
  0.7911879281263707  0.9573872224886163  0.6246610545491046
  0.7920800944052263  0.2912601744061225  0.9584243521121444
  0.7927927771171114  0.2913006135384500  0.2913006135384500
  0.7937485363304161  0.2893457310822765  0.6248131498691998
  0.7911879281263707  0.6246610545491046  0.9573872224886163
  0.7937485363304161  0.6248131498691998  0.2893457310822765
  0.7895851182623780  0.6233676613864658  0.6233676613864658
  0.1248798039253194  0.9585131008821811  0.9585131008821811
  0.1252462354017918  0.9591521644799347  0.2917656674453868
  0.1241534493867610  0.9587328212241272  0.6251576074118450
  0.1252462354017918  0.2917656674453868  0.9591521644799347
  0.1265513485551226  0.2927315052050408  0.2927315052050408
  0.1246926620235899  0.2915978058887135  0.6258359373956329
  0.1241534493867610  0.6251576074118450  0.9587328212241272
  0.1246926620235899  0.6258359373956329  0.2915978058887135
  0.1245035689886171  0.6250745682075863  0.6250745682075863
  0.4581850100842538  0.9583899617506284  0.9583899617506284
  0.4584770754809990  0.9589832987196089  0.2915159539532226
  0.4580642892235547  0.9581110579427755  0.6249465463219641
  0.4584770754809990  0.2915159539532226  0.9589832987196089
  0.4612560449506507  0.2936756653213587  0.2936756653213587
  0.4573572750034933  0.2895701412943797  0.6282205034451537
  0.4580642892235547  0.6249465463219641  0.9581110579427755
  0.4573572750034933  0.6282205034451537  0.2895701412943797
  0.4478418034699320  0.6292966837742844  0.6292966837742844
  0.8751201960746805  0.0414868991178190  0.0414868991178190
  0.8758465506132390  0.0412671787758728  0.3748423925881551
  0.8747537645982084  0.0408478355200654  0.7082343325546130
  0.8758465506132390  0.3748423925881551  0.0412671787758728
  0.8754964310113829  0.3749254317924135  0.3749254317924135
  0.8753073379764102  0.3741640626043670  0.7084021941112868
  0.8747537645982084  0.7082343325546130  0.0408478355200654
  0.8753073379764102  0.7084021941112868  0.3741640626043670
  0.8734486514448776  0.7072684947949595  0.7072684947949595
  0.2084278132549123  0.0421124792945449  0.0421124792945449
  0.2088120718736293  0.0426127775113837  0.3753389454508954
  0.2079199055947735  0.0415756478878555  0.7087398255938778
  0.2088120718736293  0.3753389454508954  0.0426127775113837
  0.2104148817376221  0.3766323386135340  0.3766323386135340
  0.2062514636695838  0.3751868501308005  0.7106542689177233
  0.2079199055947735  0.7087398255938778  0.0415756478878555
  0.2062514636695838  0.7106542689177233  0.3751868501308005
  0.2072072228828888  0.7086993864615500  0.7086993864615500
  0.5418149899157458  0.0416100382493716  0.0416100382493716
  0.5419357107764450  0.0418889420572243  0.3750534536780359
  0.5415229245190010  0.0410167012803910  0.7084840460467774
  0.5419357107764450  0.3750534536780359  0.0418889420572243
  0.5521581965300680  0.3707033162257156  0.3707033162257156
  0.5426427249965067  0.3717794965548463  0.7104298587056207
  0.5415229245190010  0.7084840460467774  0.0410167012803910
  0.5426427249965067  0.7104298587056207  0.3717794965548463
  0.5387439550493490  0.7063243346786413  0.7063243346786413
  0.9578875207054554  0.7915721867450876  0.9578875207054554
  0.9584243521121444  0.7920800944052263  0.2912601744061225
  0.9573872224886163  0.7911879281263707  0.6246610545491046
  0.9585131008821811  0.1248798039253194  0.9585131008821811
  0.9591521644799347  0.1252462354017918  0.2917656674453868
  0.9587328212241272  0.1241534493867610  0.6251576074118450
  0.9583899617506284  0.4581850100842538  0.9583899617506284
  0.9589832987196089  0.4584770754809990  0.2915159539532226
  0.9581110579427755  0.4580642892235547  0.6249465463219641
  0.2912601744061225  0.7920800944052263  0.9584243521121444
  0.2913006135384500  0.7927927771171114  0.2913006135384500
  0.2893457310822765  0.7937485363304161  0.6248131498691998
  0.2917656674453868  0.1252462354017918  0.9591521644799347
  0.2927315052050408  0.1265513485551226  0.2927315052050408
  0.2915978058887135  0.1246926620235899  0.6258359373956329
  0.2915159539532226  0.4584770754809990  0.9589832987196089
  0.2936756653213587  0.4612560449506507  0.2936756653213587
  0.2895701412943797  0.4573572750034933  0.6282205034451537
  0.6246610545491046  0.7911879281263707  0.9573872224886163
  0.6248131498691998  0.7937485363304161  0.2893457310822765
  0.6233676613864658  0.7895851182623780  0.6233676613864658
  0.6251576074118450  0.1241534493867610  0.9587328212241272
  0.6258359373956329  0.1246926620235899  0.2915978058887135
  0.6250745682075863  0.1245035689886171  0.6250745682075863
  0.6249465463219641  0.4580642892235547  0.9581110579427755
  0.6282205034451537  0.4573572750034933  0.2895701412943797
  0.6292966837742844  0.4478418034699320  0.6292966837742844
  0.8744128280669327  0.8744128280669327  0.8744128280669327
  0.8750582052724520  0.8750582052724520  0.2078503234614003
  0.8747447365323916  0.8747447365323916  0.5410645606651134
  0.8750582052724520  0.2078503234614003  0.8750582052724520
  0.8759026209912679  0.2082907284858486  0.2082907284858486
  0.8764107803762222  0.2068629737947237  0.5418414609258583
  0.8747447365323916  0.5410645606651134  0.8747447365323916
  0.8764107803762222  0.5418414609258583  0.2068629737947237
  0.8744268544563727  0.5411192410719199  0.5411192410719199
  0.2078503234614003  0.8750582052724520  0.8750582052724520
  0.2082907284858486  0.8759026209912679  0.2082907284858486
  0.2068629737947237  0.8764107803762222  0.5418414609258583
  0.2082907284858486  0.2082907284858486  0.8759026209912679
  0.2093009909050688  0.2093009909050688  0.2093009909050688
  0.2083595710289091  0.2083595710289091  0.5422970814968991
  0.2068629737947237  0.5418414609258583  0.8764107803762222
  0.2083595710289091  0.5422970814968991  0.2083595710289091
  0.2083284477740159  0.5420624886603415  0.5420624886603415
  0.5410645606651134  0.8747447365323916  0.8747447365323916
  0.5418414609258583  0.8764107803762222  0.2068629737947237
  0.5411192410719199  0.8744268544563727  0.5411192410719199
  0.5418414609258583  0.2068629737947237  0.8764107803762222
  0.5422970814968991  0.2083595710289091  0.2083595710289091
  0.5420624886603415  0.2083284477740159  0.5420624886603415
  0.5411192410719199  0.5411192410719199  0.8744268544563727
  0.5420624886603415  0.5420624886603415  0.2083284477740159
  0.9578875207054554  0.9578875207054554  0.7915721867450876
  0.9585131008821811  0.9585131008821811  0.1248798039253194
  0.9583899617506284  0.9583899617506284  0.4581850100842538
  0.9584243521121444  0.2912601744061225  0.7920800944052263
  0.9591521644799347  0.2917656674453868  0.1252462354017918
  0.9589832987196089  0.2915159539532226  0.4584770754809990
  0.9573872224886163  0.6246610545491046  0.7911879281263707
  0.9587328212241272  0.6251576074118450  0.1241534493867610
  0.9581110579427755  0.6249465463219641  0.4580642892235547
  0.2912601744061225  0.9584243521121444  0.7920800944052263
  0.2917656674453868  0.9591521644799347  0.1252462354017918
  0.2915159539532226  0.9589832987196089  0.4584770754809990
  0.2913006135384500  0.2913006135384500  0.7927927771171114
  0.2927315052050408  0.2927315052050408  0.1265513485551226
  0.2936756653213587  0.2936756653213587  0.4612560449506507
  0.2893457310822765  0.6248131498691998  0.7937485363304161
  0.2915978058887135  0.6258359373956329  0.1246926620235899
  0.2895701412943797  0.6282205034451537  0.4573572750034933
  0.6246610545491046  0.9573872224886163  0.7911879281263707
  0.6251576074118450  0.9587328212241272  0.1241534493867610
  0.6249465463219641  0.9581110579427755  0.4580642892235547
  0.6248131498691998  0.2893457310822765  0.7937485363304161
  0.6258359373956329  0.2915978058887135  0.1246926620235899
  0.6282205034451537  0.2895701412943797  0.4573572750034933
  0.6233676613864658  0.6233676613864658  0.7895851182623780
  0.6250745682075863  0.6250745682075863  0.1245035689886171
  0.6292966837742844  0.6292966837742844  0.4478418034699320
 
  0.00000000E+00  0.00000000E+00  0.00000000E+00
  0.00000000E+00  0.00000000E+00  0.00000000E+00
  0.00000000E+00  0.00000000E+00  0.00000000E+00
  0.00000000E+00  0.00000000E+00  0.00000000E+00
  0.00000000E+00  0.00000000E+00  0.00000000E+00
  0.00000000E+00  0.00000000E+00  0.00000000E+00
  0.00000000E+00  0.00000000E+00  0.00000000E+00
  0.00000000E+00  0.00000000E+00  0.00000000E+00
  0.00000000E+00  0.00000000E+00  0.00000000E+00
  0.00000000E+00  0.00000000E+00  0.00000000E+00
  0.00000000E+00  0.00000000E+00  0.00000000E+00
  0.00000000E+00  0.00000000E+00  0.00000000E+00
  0.00000000E+00  0.00000000E+00  0.00000000E+00
  0.00000000E+00  0.00000000E+00  0.00000000E+00
  0.00000000E+00  0.00000000E+00  0.00000000E+00
  0.00000000E+00  0.00000000E+00  0.00000000E+00
  0.00000000E+00  0.00000000E+00  0.00000000E+00
  0.00000000E+00  0.00000000E+00  0.00000000E+00
  0.00000000E+00  0.00000000E+00  0.00000000E+00
  0.00000000E+00  0.00000000E+00  0.00000000E+00
  0.00000000E+00  0.00000000E+00  0.00000000E+00
  0.00000000E+00  0.00000000E+00  0.00000000E+00
  0.00000000E+00  0.00000000E+00  0.00000000E+00
  0.00000000E+00  0.00000000E+00  0.00000000E+00
  0.00000000E+00  0.00000000E+00  0.00000000E+00
  0.00000000E+00  0.00000000E+00  0.00000000E+00
  0.00000000E+00  0.00000000E+00  0.00000000E+00
  0.00000000E+00  0.00000000E+00  0.00000000E+00
  0.00000000E+00  0.00000000E+00  0.00000000E+00
  0.00000000E+00  0.00000000E+00  0.00000000E+00
  0.00000000E+00  0.00000000E+00  0.00000000E+00
  0.00000000E+00  0.00000000E+00  0.00000000E+00
  0.00000000E+00  0.00000000E+00  0.00000000E+00
  0.00000000E+00  0.00000000E+00  0.00000000E+00
  0.00000000E+00  0.00000000E+00  0.00000000E+00
  0.00000000E+00  0.00000000E+00  0.00000000E+00
  0.00000000E+00  0.00000000E+00  0.00000000E+00
  0.00000000E+00  0.00000000E+00  0.00000000E+00
  0.00000000E+00  0.00000000E+00  0.00000000E+00
  0.00000000E+00  0.00000000E+00  0.00000000E+00
  0.00000000E+00  0.00000000E+00  0.00000000E+00
  0.00000000E+00  0.00000000E+00  0.00000000E+00
  0.00000000E+00  0.00000000E+00  0.00000000E+00
  0.00000000E+00  0.00000000E+00  0.00000000E+00
  0.00000000E+00  0.00000000E+00  0.00000000E+00
  0.00000000E+00  0.00000000E+00  0.00000000E+00
  0.00000000E+00  0.00000000E+00  0.00000000E+00
  0.00000000E+00  0.00000000E+00  0.00000000E+00
  0.00000000E+00  0.00000000E+00  0.00000000E+00
  0.00000000E+00  0.00000000E+00  0.00000000E+00
  0.00000000E+00  0.00000000E+00  0.00000000E+00
  0.00000000E+00  0.00000000E+00  0.00000000E+00
  0.00000000E+00  0.00000000E+00  0.00000000E+00
  0.00000000E+00  0.00000000E+00  0.00000000E+00
  0.00000000E+00  0.00000000E+00  0.00000000E+00
  0.00000000E+00  0.00000000E+00  0.00000000E+00
  0.00000000E+00  0.00000000E+00  0.00000000E+00
  0.00000000E+00  0.00000000E+00  0.00000000E+00
  0.00000000E+00  0.00000000E+00  0.00000000E+00
  0.00000000E+00  0.00000000E+00  0.00000000E+00
  0.00000000E+00  0.00000000E+00  0.00000000E+00
  0.00000000E+00  0.00000000E+00  0.00000000E+00
  0.00000000E+00  0.00000000E+00  0.00000000E+00
  0.00000000E+00  0.00000000E+00  0.00000000E+00
  0.00000000E+00  0.00000000E+00  0.00000000E+00
  0.00000000E+00  0.00000000E+00  0.00000000E+00
  0.00000000E+00  0.00000000E+00  0.00000000E+00
  0.00000000E+00  0.00000000E+00  0.00000000E+00
  0.00000000E+00  0.00000000E+00  0.00000000E+00
  0.00000000E+00  0.00000000E+00  0.00000000E+00
  0.00000000E+00  0.00000000E+00  0.00000000E+00
  0.00000000E+00  0.00000000E+00  0.00000000E+00
  0.00000000E+00  0.00000000E+00  0.00000000E+00
  0.00000000E+00  0.00000000E+00  0.00000000E+00
  0.00000000E+00  0.00000000E+00  0.00000000E+00
  0.00000000E+00  0.00000000E+00  0.00000000E+00
  0.00000000E+00  0.00000000E+00  0.00000000E+00
  0.00000000E+00  0.00000000E+00  0.00000000E+00
  0.00000000E+00  0.00000000E+00  0.00000000E+00
  0.00000000E+00  0.00000000E+00  0.00000000E+00
  0.00000000E+00  0.00000000E+00  0.00000000E+00
  0.00000000E+00  0.00000000E+00  0.00000000E+00
  0.00000000E+00  0.00000000E+00  0.00000000E+00
  0.00000000E+00  0.00000000E+00  0.00000000E+00
  0.00000000E+00  0.00000000E+00  0.00000000E+00
  0.00000000E+00  0.00000000E+00  0.00000000E+00
  0.00000000E+00  0.00000000E+00  0.00000000E+00
  0.00000000E+00  0.00000000E+00  0.00000000E+00
  0.00000000E+00  0.00000000E+00  0.00000000E+00
  0.00000000E+00  0.00000000E+00  0.00000000E+00
  0.00000000E+00  0.00000000E+00  0.00000000E+00
  0.00000000E+00  0.00000000E+00  0.00000000E+00
  0.00000000E+00  0.00000000E+00  0.00000000E+00
  0.00000000E+00  0.00000000E+00  0.00000000E+00
  0.00000000E+00  0.00000000E+00  0.00000000E+00
  0.00000000E+00  0.00000000E+00  0.00000000E+00
  0.00000000E+00  0.00000000E+00  0.00000000E+00
  0.00000000E+00  0.00000000E+00  0.00000000E+00
  0.00000000E+00  0.00000000E+00  0.00000000E+00
  0.00000000E+00  0.00000000E+00  0.00000000E+00
  0.00000000E+00  0.00000000E+00  0.00000000E+00
  0.00000000E+00  0.00000000E+00  0.00000000E+00
  0.00000000E+00  0.00000000E+00  0.00000000E+00
  0.00000000E+00  0.00000000E+00  0.00000000E+00
  0.00000000E+00  0.00000000E+00  0.00000000E+00
  0.00000000E+00  0.00000000E+00  0.00000000E+00
  0.00000000E+00  0.00000000E+00  0.00000000E+00
  0.00000000E+00  0.00000000E+00  0.00000000E+00
  0.00000000E+00  0.00000000E+00  0.00000000E+00
  0.00000000E+00  0.00000000E+00  0.00000000E+00
  0.00000000E+00  0.00000000E+00  0.00000000E+00
  0.00000000E+00  0.00000000E+00  0.00000000E+00
  0.00000000E+00  0.00000000E+00  0.00000000E+00
  0.00000000E+00  0.00000000E+00  0.00000000E+00
  0.00000000E+00  0.00000000E+00  0.00000000E+00
  0.00000000E+00  0.00000000E+00  0.00000000E+00
  0.00000000E+00  0.00000000E+00  0.00000000E+00
  0.00000000E+00  0.00000000E+00  0.00000000E+00
  0.00000000E+00  0.00000000E+00  0.00000000E+00
  0.00000000E+00  0.00000000E+00  0.00000000E+00
  0.00000000E+00  0.00000000E+00  0.00000000E+00
  0.00000000E+00  0.00000000E+00  0.00000000E+00
  0.00000000E+00  0.00000000E+00  0.00000000E+00
  0.00000000E+00  0.00000000E+00  0.00000000E+00
  0.00000000E+00  0.00000000E+00  0.00000000E+00
  0.00000000E+00  0.00000000E+00  0.00000000E+00
  0.00000000E+00  0.00000000E+00  0.00000000E+00
  0.00000000E+00  0.00000000E+00  0.00000000E+00
  0.00000000E+00  0.00000000E+00  0.00000000E+00
  0.00000000E+00  0.00000000E+00  0.00000000E+00
  0.00000000E+00  0.00000000E+00  0.00000000E+00
  0.00000000E+00  0.00000000E+00  0.00000000E+00
  0.00000000E+00  0.00000000E+00  0.00000000E+00
  0.00000000E+00  0.00000000E+00  0.00000000E+00
  0.00000000E+00  0.00000000E+00  0.00000000E+00
  0.00000000E+00  0.00000000E+00  0.00000000E+00
  0.00000000E+00  0.00000000E+00  0.00000000E+00
  0.00000000E+00  0.00000000E+00  0.00000000E+00
  0.00000000E+00  0.00000000E+00  0.00000000E+00
  0.00000000E+00  0.00000000E+00  0.00000000E+00
  0.00000000E+00  0.00000000E+00  0.00000000E+00
  0.00000000E+00  0.00000000E+00  0.00000000E+00
  0.00000000E+00  0.00000000E+00  0.00000000E+00
  0.00000000E+00  0.00000000E+00  0.00000000E+00
  0.00000000E+00  0.00000000E+00  0.00000000E+00
  0.00000000E+00  0.00000000E+00  0.00000000E+00
  0.00000000E+00  0.00000000E+00  0.00000000E+00
  0.00000000E+00  0.00000000E+00  0.00000000E+00
  0.00000000E+00  0.00000000E+00  0.00000000E+00
  0.00000000E+00  0.00000000E+00  0.00000000E+00
  0.00000000E+00  0.00000000E+00  0.00000000E+00
  0.00000000E+00  0.00000000E+00  0.00000000E+00
  0.00000000E+00  0.00000000E+00  0.00000000E+00
  0.00000000E+00  0.00000000E+00  0.00000000E+00
  0.00000000E+00  0.00000000E+00  0.00000000E+00
  0.00000000E+00  0.00000000E+00  0.00000000E+00
  0.00000000E+00  0.00000000E+00  0.00000000E+00
  0.00000000E+00  0.00000000E+00  0.00000000E+00
  0.00000000E+00  0.00000000E+00  0.00000000E+00
  0.00000000E+00  0.00000000E+00  0.00000000E+00
  0.00000000E+00  0.00000000E+00  0.00000000E+00
  0.00000000E+00  0.00000000E+00  0.00000000E+00
  0.00000000E+00  0.00000000E+00  0.00000000E+00
  0.00000000E+00  0.00000000E+00  0.00000000E+00
  0.00000000E+00  0.00000000E+00  0.00000000E+00
  0.00000000E+00  0.00000000E+00  0.00000000E+00
  0.00000000E+00  0.00000000E+00  0.00000000E+00
  0.00000000E+00  0.00000000E+00  0.00000000E+00
  0.00000000E+00  0.00000000E+00  0.00000000E+00
  0.00000000E+00  0.00000000E+00  0.00000000E+00
  0.00000000E+00  0.00000000E+00  0.00000000E+00
  0.00000000E+00  0.00000000E+00  0.00000000E+00
  0.00000000E+00  0.00000000E+00  0.00000000E+00
  0.00000000E+00  0.00000000E+00  0.00000000E+00
  0.00000000E+00  0.00000000E+00  0.00000000E+00
  0.00000000E+00  0.00000000E+00  0.00000000E+00
  0.00000000E+00  0.00000000E+00  0.00000000E+00
  0.00000000E+00  0.00000000E+00  0.00000000E+00
  0.00000000E+00  0.00000000E+00  0.00000000E+00
  0.00000000E+00  0.00000000E+00  0.00000000E+00
  0.00000000E+00  0.00000000E+00  0.00000000E+00
  0.00000000E+00  0.00000000E+00  0.00000000E+00
  0.00000000E+00  0.00000000E+00  0.00000000E+00
  0.00000000E+00  0.00000000E+00  0.00000000E+00
  0.00000000E+00  0.00000000E+00  0.00000000E+00
  0.00000000E+00  0.00000000E+00  0.00000000E+00
  0.00000000E+00  0.00000000E+00  0.00000000E+00
  0.00000000E+00  0.00000000E+00  0.00000000E+00
  0.00000000E+00  0.00000000E+00  0.00000000E+00
  0.00000000E+00  0.00000000E+00  0.00000000E+00
  0.00000000E+00  0.00000000E+00  0.00000000E+00
  0.00000000E+00  0.00000000E+00  0.00000000E+00
  0.00000000E+00  0.00000000E+00  0.00000000E+00
  0.00000000E+00  0.00000000E+00  0.00000000E+00
  0.00000000E+00  0.00000000E+00  0.00000000E+00
  0.00000000E+00  0.00000000E+00  0.00000000E+00
  0.00000000E+00  0.00000000E+00  0.00000000E+00
  0.00000000E+00  0.00000000E+00  0.00000000E+00
  0.00000000E+00  0.00000000E+00  0.00000000E+00
  0.00000000E+00  0.00000000E+00  0.00000000E+00
  0.00000000E+00  0.00000000E+00  0.00000000E+00
  0.00000000E+00  0.00000000E+00  0.00000000E+00
  0.00000000E+00  0.00000000E+00  0.00000000E+00
  0.00000000E+00  0.00000000E+00  0.00000000E+00
  0.00000000E+00  0.00000000E+00  0.00000000E+00
  0.00000000E+00  0.00000000E+00  0.00000000E+00
  0.00000000E+00  0.00000000E+00  0.00000000E+00
  0.00000000E+00  0.00000000E+00  0.00000000E+00
  0.00000000E+00  0.00000000E+00  0.00000000E+00
  0.00000000E+00  0.00000000E+00  0.00000000E+00
  0.00000000E+00  0.00000000E+00  0.00000000E+00
  0.00000000E+00  0.00000000E+00  0.00000000E+00
  0.00000000E+00  0.00000000E+00  0.00000000E+00
  0.00000000E+00  0.00000000E+00  0.00000000E+00
  0.00000000E+00  0.00000000E+00  0.00000000E+00
