ALGO = A
EDIFF = 1e-05
EDIFFG = -0.01
ENCUT = 400
FERDO = 425*1 1*0 4*1 178*0
FERWE = 431*1 177*0
IBRION = 2
ICHARG = 2
ISIF = 2
ISMEAR = -2
ISPIN = 2
ISTART = 1
LDIAG = False
LCHARG = False
LORBIT = 11
LREAL = Auto
LWAVE = True
MAGMOM = 215*0.6
NELM = 100
NSW = 99
NUPDOWN = 2
PREC = Accurate
SIGMA = 0.05
LHFCALC = True
HFSCREEN = 0.2
PREC = Accurate
PRECFOCK = Fast
ISYM = 0
NBANDS = 608
NPAR = 32
