ALGO = N
ISTART = 1
EDIFF = 1e-6
EDIFFG = -0.01
ENCUT = 400
IBRION = 2
ICHARG = 2
ISIF = 2
ISMEAR = 0
ISPIN = 2
LORBIT = 11
LREAL = Auto
LWAVE = True
MAGMOM = 215*0.6
NUPDOWN = 2
NELM = 100
NSW = 0
PREC = Accurate
SIGMA = 0.05
