ALGO = A
EDIFF = 1e-05
EDIFFG = -0.01
ENCUT = 400
FERDO = 425*1 1*0 3*1 1*0 1*1 49*0
FERWE = 431*1 49*0
HFSCREEN = 0.2
IBRION = 2
ICHARG = 2
ISIF = 2
ISMEAR = -2
ISPIN = 2
ISTART = 1
ISYM = 0
LCHARG = False
LDIAG = False
LHFCALC = True
LORBIT = 11
LREAL = Auto
LWAVE = True
MAGMOM = 215*0.6
NBANDS = 450
NELM = 100
NSW = 99
NUPDOWN = 2
PREC = Accurate
PRECFOCK = Fast
SIGMA = 0.05
NPAR = 32
