Si1 C214                                
    1.000000000000000     
    10.6460609999999996    0.0000000000000000    0.0000000000000000
     0.0000000000000000   10.6460609999999996    0.0000000000000000
     0.0000000000000000    0.0000000000000000   10.6460609999999996
  Si              C             
     1   214
Direct
  0.5000000000000000  0.5000000000000000  0.5000000000000000
  0.0414326191139197  0.0414326191139197  0.8751271640683871
  0.0421366035346049  0.0421366035346049  0.2083985687020118
  0.0417256482167646  0.0417256482167646  0.5418452762697649
  0.0413339278360597  0.3747632970813526  0.8758034077583261
  0.0428117974114822  0.3753677969337601  0.2089164873444756
  0.0418799032103966  0.3750546926130360  0.5419671883334609
  0.0407347548407178  0.7082108894426907  0.8747163100852646
  0.0415132837825633  0.7087632221422220  0.2078499769839719
  0.0408828155535566  0.7085003248624626  0.5415423650883917
  0.3747632970813526  0.0413339278360597  0.8758034077583261
  0.3753677969337601  0.0428117974114822  0.2089164873444756
  0.3750546926130360  0.0418799032103966  0.5419671883334609
  0.3746881371648699  0.3746881371648699  0.8758357829129190
  0.3769259703388095  0.3769259703388095  0.2106287574409958
  0.3738226456925954  0.3738226456925954  0.5521072840684996
  0.3741544618342286  0.7083483010001296  0.8752274761699893
  0.3745874208011503  0.7106124585146480  0.2062554041309599
  0.3711462998697410  0.7109021699452666  0.5418039687270911
  0.7082108894426907  0.0407347548407178  0.8747163100852646
  0.7087632221422220  0.0415132837825633  0.2078499769839719
  0.7085003248624626  0.0408828155535566  0.5415423650883917
  0.7083483010001296  0.3741544618342286  0.8752274761699893
  0.7106124585146480  0.3745874208011503  0.2062554041309599
  0.7109021699452666  0.3711462998697410  0.5418039687270911
  0.7071959750232280  0.7071959750232280  0.8732324603052563
  0.7087945276334671  0.7087945276334671  0.2071044796563990
  0.7052337274601033  0.7052337274601033  0.5390890539725863
  0.7906027662114427  0.7906027662114427  0.7906027662114427
  0.7918243655000102  0.7918243655000102  0.1239608103455406
  0.7909323831757457  0.7909323831757457  0.4571723057518355
  0.7918243655000102  0.1239608103455406  0.7918243655000102
  0.7922006892217146  0.1249187670192888  0.1249187670192888
  0.7929467026938958  0.1237532503525912  0.4582911300610259
  0.7909323831757457  0.4571723057518355  0.7909323831757457
  0.7929467026938958  0.4582911300610259  0.1237532503525912
  0.7922842638359332  0.4576906152565443  0.4576906152565443
  0.1239608103455406  0.7918243655000102  0.7918243655000102
  0.1249187670192888  0.7922006892217146  0.1249187670192888
  0.1237532503525912  0.7929467026938958  0.4582911300610259
  0.1249187670192888  0.1249187670192888  0.7922006892217146
  0.1256462288152922  0.1256462288152922  0.1256462288152922
  0.1257610261390742  0.1257610261390742  0.4588273039494264
  0.1237532503525912  0.4582911300610259  0.7929467026938958
  0.1257610261390742  0.4588273039494264  0.1257610261390742
  0.1254577379527584  0.4589930699855011  0.4589930699855011
  0.4571723057518355  0.7909323831757457  0.7909323831757457
  0.4582911300610259  0.7929467026938958  0.1237532503525912
  0.4576906152565443  0.7922842638359332  0.4576906152565443
  0.4582911300610259  0.1237532503525912  0.7929467026938958
  0.4588273039494264  0.1257610261390742  0.1257610261390742
  0.4589930699855011  0.1254577379527584  0.4589930699855011
  0.4576906152565443  0.4576906152565443  0.7922842638359332
  0.4589930699855011  0.4589930699855011  0.1254577379527584
  0.0414326191139197  0.8751271640683871  0.0414326191139197
  0.0413339278360597  0.8758034077583261  0.3747632970813526
  0.0407347548407178  0.8747163100852646  0.7082108894426907
  0.0421366035346049  0.2083985687020118  0.0421366035346049
  0.0428117974114822  0.2089164873444756  0.3753677969337601
  0.0415132837825633  0.2078499769839719  0.7087632221422220
  0.0417256482167646  0.5418452762697649  0.0417256482167646
  0.0418799032103966  0.5419671883334609  0.3750546926130360
  0.0408828155535566  0.5415423650883917  0.7085003248624626
  0.3747632970813526  0.8758034077583261  0.0413339278360597
  0.3746881371648699  0.8758357829129190  0.3746881371648699
  0.3741544618342286  0.8752274761699893  0.7083483010001296
  0.3753677969337601  0.2089164873444756  0.0428117974114822
  0.3769259703388095  0.2106287574409958  0.3769259703388095
  0.3745874208011503  0.2062554041309599  0.7106124585146480
  0.3750546926130360  0.5419671883334609  0.0418799032103966
  0.3738226456925954  0.5521072840684996  0.3738226456925954
  0.3711462998697410  0.5418039687270911  0.7109021699452666
  0.7082108894426907  0.8747163100852646  0.0407347548407178
  0.7083483010001296  0.8752274761699893  0.3741544618342286
  0.7071959750232280  0.8732324603052563  0.7071959750232280
  0.7087632221422220  0.2078499769839719  0.0415132837825633
  0.7106124585146480  0.2062554041309599  0.3745874208011503
  0.7087945276334671  0.2071044796563990  0.7087945276334671
  0.7085003248624626  0.5415423650883917  0.0408828155535566
  0.7109021699452666  0.5418039687270911  0.3711462998697410
  0.7052337274601033  0.5390890539725863  0.7052337274601033
  0.7916014312979880  0.9578633964653950  0.9578633964653950
  0.7921500230160282  0.9584867162174365  0.2912367778577780
  0.7910835126555246  0.9571882025885176  0.6246322030662398
  0.7921500230160282  0.2912367778577780  0.9584867162174365
  0.7928955203436012  0.2912054723665332  0.2912054723665332
  0.7937445958690400  0.2893875414853519  0.6254125791988496
  0.7910835126555246  0.6246322030662398  0.9571882025885176
  0.7937445958690400  0.6254125791988496  0.2893875414853519
  0.7893712425590043  0.6230740296611903  0.6230740296611903
  0.1248728359316130  0.9585673808860804  0.9585673808860804
  0.1252836899147353  0.9592652451592824  0.2917891105573093
  0.1241965922416740  0.9586660721639405  0.6252367029186474
  0.1252836899147353  0.2917891105573093  0.9592652451592824
  0.1267675396947439  0.2928040249767724  0.2928040249767724
  0.1247725238300107  0.2916516989998704  0.6258455381657716
  0.1241965922416740  0.6252367029186474  0.9586660721639405
  0.1247725238300107  0.6258455381657716  0.2916516989998704
  0.1241642170870808  0.6253118628351299  0.6253118628351299
  0.4581547237302350  0.9582743517832353  0.9582743517832353
  0.4584576349116083  0.9591171844464437  0.2914996751375373
  0.4580328116665392  0.9581200967896034  0.6249453073869640
  0.4584576349116083  0.2914996751375373  0.9591171844464437
  0.4609109460274135  0.2947662725398967  0.2947662725398967
  0.4581960312729088  0.2890978300547334  0.6288537001302589
  0.4580328116665392  0.6249453073869640  0.9581200967896034
  0.4581960312729088  0.6288537001302589  0.2890978300547334
  0.4478927159315003  0.6261773543074046  0.6261773543074046
  0.8751271640683871  0.0414326191139197  0.0414326191139197
  0.8758034077583261  0.0413339278360597  0.3747632970813526
  0.8747163100852646  0.0407347548407178  0.7082108894426907
  0.8758034077583261  0.3747632970813526  0.0413339278360597
  0.8758357829129190  0.3746881371648699  0.3746881371648699
  0.8752274761699893  0.3741544618342286  0.7083483010001296
  0.8747163100852646  0.7082108894426907  0.0407347548407178
  0.8752274761699893  0.7083483010001296  0.3741544618342286
  0.8732324603052563  0.7071959750232280  0.7071959750232280
  0.2083985687020118  0.0421366035346049  0.0421366035346049
  0.2089164873444756  0.0428117974114822  0.3753677969337601
  0.2078499769839719  0.0415132837825633  0.7087632221422220
  0.2089164873444756  0.3753677969337601  0.0428117974114822
  0.2106287574409958  0.3769259703388095  0.3769259703388095
  0.2062554041309599  0.3745874208011503  0.7106124585146480
  0.2078499769839719  0.7087632221422220  0.0415132837825633
  0.2062554041309599  0.7106124585146480  0.3745874208011503
  0.2071044796563990  0.7087945276334671  0.7087945276334671
  0.5418452762697649  0.0417256482167646  0.0417256482167646
  0.5419671883334609  0.0418799032103966  0.3750546926130360
  0.5415423650883917  0.0408828155535566  0.7085003248624626
  0.5419671883334609  0.3750546926130360  0.0418799032103966
  0.5521072840684996  0.3738226456925954  0.3738226456925954
  0.5418039687270911  0.3711462998697410  0.7109021699452666
  0.5415423650883917  0.7085003248624626  0.0408828155535566
  0.5418039687270911  0.7109021699452666  0.3711462998697410
  0.5390890539725863  0.7052337274601033  0.7052337274601033
  0.9578633964653950  0.7916014312979880  0.9578633964653950
  0.9584867162174365  0.7921500230160282  0.2912367778577780
  0.9571882025885176  0.7910835126555246  0.6246322030662398
  0.9585673808860804  0.1248728359316130  0.9585673808860804
  0.9592652451592824  0.1252836899147353  0.2917891105573093
  0.9586660721639405  0.1241965922416740  0.6252367029186474
  0.9582743517832353  0.4581547237302350  0.9582743517832353
  0.9591171844464437  0.4584576349116083  0.2914996751375373
  0.9581200967896034  0.4580328116665392  0.6249453073869640
  0.2912367778577780  0.7921500230160282  0.9584867162174365
  0.2912054723665332  0.7928955203436012  0.2912054723665332
  0.2893875414853519  0.7937445958690400  0.6254125791988496
  0.2917891105573093  0.1252836899147353  0.9592652451592824
  0.2928040249767724  0.1267675396947439  0.2928040249767724
  0.2916516989998704  0.1247725238300107  0.6258455381657716
  0.2914996751375373  0.4584576349116083  0.9591171844464437
  0.2947662725398967  0.4609109460274135  0.2947662725398967
  0.2890978300547334  0.4581960312729088  0.6288537001302589
  0.6246322030662398  0.7910835126555246  0.9571882025885176
  0.6254125791988496  0.7937445958690400  0.2893875414853519
  0.6230740296611903  0.7893712425590043  0.6230740296611903
  0.6252367029186474  0.1241965922416740  0.9586660721639405
  0.6258455381657716  0.1247725238300107  0.2916516989998704
  0.6253118628351299  0.1241642170870808  0.6253118628351299
  0.6249453073869640  0.4580328116665392  0.9581200967896034
  0.6288537001302589  0.4581960312729088  0.2890978300547334
  0.6261773543074046  0.4478927159315003  0.6261773543074046
  0.8743537711847078  0.8743537711847078  0.8743537711847078
  0.8750812329807113  0.8750812329807113  0.2077993107782853
  0.8742389738609256  0.8742389738609256  0.5411726960505735
  0.8750812329807113  0.2077993107782853  0.8750812329807113
  0.8760391896544594  0.2081756344999897  0.2081756344999897
  0.8762467496474017  0.2070532973061043  0.5417088699389743
  0.8742389738609256  0.5411726960505735  0.8742389738609256
  0.8762467496474017  0.5417088699389743  0.2070532973061043
  0.8745422620472417  0.5410069300144986  0.5410069300144986
  0.2077993107782853  0.8750812329807113  0.8750812329807113
  0.2081756344999897  0.8760391896544594  0.2081756344999897
  0.2070532973061043  0.8762467496474017  0.5417088699389743
  0.2081756344999897  0.2081756344999897  0.8760391896544594
  0.2093972337885576  0.2093972337885576  0.2093972337885576
  0.2090676168242543  0.2090676168242543  0.5428276942481642
  0.2070532973061043  0.5417088699389743  0.8762467496474017
  0.2090676168242543  0.5428276942481642  0.2090676168242543
  0.2077157361640667  0.5423093847434557  0.5423093847434557
  0.5411726960505735  0.8742389738609256  0.8742389738609256
  0.5417088699389743  0.8762467496474017  0.2070532973061043
  0.5410069300144986  0.8745422620472417  0.5410069300144986
  0.5417088699389743  0.2070532973061043  0.8762467496474017
  0.5428276942481642  0.2090676168242543  0.2090676168242543
  0.5423093847434557  0.2077157361640667  0.5423093847434557
  0.5410069300144986  0.5410069300144986  0.8745422620472417
  0.5423093847434557  0.5423093847434557  0.2077157361640667
  0.9578633964653950  0.9578633964653950  0.7916014312979880
  0.9585673808860804  0.9585673808860804  0.1248728359316130
  0.9582743517832353  0.9582743517832353  0.4581547237302350
  0.9584867162174365  0.2912367778577780  0.7921500230160282
  0.9592652451592824  0.2917891105573093  0.1252836899147353
  0.9591171844464437  0.2914996751375373  0.4584576349116083
  0.9571882025885176  0.6246322030662398  0.7910835126555246
  0.9586660721639405  0.6252367029186474  0.1241965922416740
  0.9581200967896034  0.6249453073869640  0.4580328116665392
  0.2912367778577780  0.9584867162174365  0.7921500230160282
  0.2917891105573093  0.9592652451592824  0.1252836899147353
  0.2914996751375373  0.9591171844464437  0.4584576349116083
  0.2912054723665332  0.2912054723665332  0.7928955203436012
  0.2928040249767724  0.2928040249767724  0.1267675396947439
  0.2947662725398967  0.2947662725398967  0.4609109460274135
  0.2893875414853519  0.6254125791988496  0.7937445958690400
  0.2916516989998704  0.6258455381657716  0.1247725238300107
  0.2890978300547334  0.6288537001302589  0.4581960312729088
  0.6246322030662398  0.9571882025885176  0.7910835126555246
  0.6252367029186474  0.9586660721639405  0.1241965922416740
  0.6249453073869640  0.9581200967896034  0.4580328116665392
  0.6254125791988496  0.2893875414853519  0.7937445958690400
  0.6258455381657716  0.2916516989998704  0.1247725238300107
  0.6288537001302589  0.2890978300547334  0.4581960312729088
  0.6230740296611903  0.6230740296611903  0.7893712425590043
  0.6253118628351299  0.6253118628351299  0.1241642170870808
  0.6261773543074046  0.6261773543074046  0.4478927159315003
 
  0.00000000E+00  0.00000000E+00  0.00000000E+00
  0.00000000E+00  0.00000000E+00  0.00000000E+00
  0.00000000E+00  0.00000000E+00  0.00000000E+00
  0.00000000E+00  0.00000000E+00  0.00000000E+00
  0.00000000E+00  0.00000000E+00  0.00000000E+00
  0.00000000E+00  0.00000000E+00  0.00000000E+00
  0.00000000E+00  0.00000000E+00  0.00000000E+00
  0.00000000E+00  0.00000000E+00  0.00000000E+00
  0.00000000E+00  0.00000000E+00  0.00000000E+00
  0.00000000E+00  0.00000000E+00  0.00000000E+00
  0.00000000E+00  0.00000000E+00  0.00000000E+00
  0.00000000E+00  0.00000000E+00  0.00000000E+00
  0.00000000E+00  0.00000000E+00  0.00000000E+00
  0.00000000E+00  0.00000000E+00  0.00000000E+00
  0.00000000E+00  0.00000000E+00  0.00000000E+00
  0.00000000E+00  0.00000000E+00  0.00000000E+00
  0.00000000E+00  0.00000000E+00  0.00000000E+00
  0.00000000E+00  0.00000000E+00  0.00000000E+00
  0.00000000E+00  0.00000000E+00  0.00000000E+00
  0.00000000E+00  0.00000000E+00  0.00000000E+00
  0.00000000E+00  0.00000000E+00  0.00000000E+00
  0.00000000E+00  0.00000000E+00  0.00000000E+00
  0.00000000E+00  0.00000000E+00  0.00000000E+00
  0.00000000E+00  0.00000000E+00  0.00000000E+00
  0.00000000E+00  0.00000000E+00  0.00000000E+00
  0.00000000E+00  0.00000000E+00  0.00000000E+00
  0.00000000E+00  0.00000000E+00  0.00000000E+00
  0.00000000E+00  0.00000000E+00  0.00000000E+00
  0.00000000E+00  0.00000000E+00  0.00000000E+00
  0.00000000E+00  0.00000000E+00  0.00000000E+00
  0.00000000E+00  0.00000000E+00  0.00000000E+00
  0.00000000E+00  0.00000000E+00  0.00000000E+00
  0.00000000E+00  0.00000000E+00  0.00000000E+00
  0.00000000E+00  0.00000000E+00  0.00000000E+00
  0.00000000E+00  0.00000000E+00  0.00000000E+00
  0.00000000E+00  0.00000000E+00  0.00000000E+00
  0.00000000E+00  0.00000000E+00  0.00000000E+00
  0.00000000E+00  0.00000000E+00  0.00000000E+00
  0.00000000E+00  0.00000000E+00  0.00000000E+00
  0.00000000E+00  0.00000000E+00  0.00000000E+00
  0.00000000E+00  0.00000000E+00  0.00000000E+00
  0.00000000E+00  0.00000000E+00  0.00000000E+00
  0.00000000E+00  0.00000000E+00  0.00000000E+00
  0.00000000E+00  0.00000000E+00  0.00000000E+00
  0.00000000E+00  0.00000000E+00  0.00000000E+00
  0.00000000E+00  0.00000000E+00  0.00000000E+00
  0.00000000E+00  0.00000000E+00  0.00000000E+00
  0.00000000E+00  0.00000000E+00  0.00000000E+00
  0.00000000E+00  0.00000000E+00  0.00000000E+00
  0.00000000E+00  0.00000000E+00  0.00000000E+00
  0.00000000E+00  0.00000000E+00  0.00000000E+00
  0.00000000E+00  0.00000000E+00  0.00000000E+00
  0.00000000E+00  0.00000000E+00  0.00000000E+00
  0.00000000E+00  0.00000000E+00  0.00000000E+00
  0.00000000E+00  0.00000000E+00  0.00000000E+00
  0.00000000E+00  0.00000000E+00  0.00000000E+00
  0.00000000E+00  0.00000000E+00  0.00000000E+00
  0.00000000E+00  0.00000000E+00  0.00000000E+00
  0.00000000E+00  0.00000000E+00  0.00000000E+00
  0.00000000E+00  0.00000000E+00  0.00000000E+00
  0.00000000E+00  0.00000000E+00  0.00000000E+00
  0.00000000E+00  0.00000000E+00  0.00000000E+00
  0.00000000E+00  0.00000000E+00  0.00000000E+00
  0.00000000E+00  0.00000000E+00  0.00000000E+00
  0.00000000E+00  0.00000000E+00  0.00000000E+00
  0.00000000E+00  0.00000000E+00  0.00000000E+00
  0.00000000E+00  0.00000000E+00  0.00000000E+00
  0.00000000E+00  0.00000000E+00  0.00000000E+00
  0.00000000E+00  0.00000000E+00  0.00000000E+00
  0.00000000E+00  0.00000000E+00  0.00000000E+00
  0.00000000E+00  0.00000000E+00  0.00000000E+00
  0.00000000E+00  0.00000000E+00  0.00000000E+00
  0.00000000E+00  0.00000000E+00  0.00000000E+00
  0.00000000E+00  0.00000000E+00  0.00000000E+00
  0.00000000E+00  0.00000000E+00  0.00000000E+00
  0.00000000E+00  0.00000000E+00  0.00000000E+00
  0.00000000E+00  0.00000000E+00  0.00000000E+00
  0.00000000E+00  0.00000000E+00  0.00000000E+00
  0.00000000E+00  0.00000000E+00  0.00000000E+00
  0.00000000E+00  0.00000000E+00  0.00000000E+00
  0.00000000E+00  0.00000000E+00  0.00000000E+00
  0.00000000E+00  0.00000000E+00  0.00000000E+00
  0.00000000E+00  0.00000000E+00  0.00000000E+00
  0.00000000E+00  0.00000000E+00  0.00000000E+00
  0.00000000E+00  0.00000000E+00  0.00000000E+00
  0.00000000E+00  0.00000000E+00  0.00000000E+00
  0.00000000E+00  0.00000000E+00  0.00000000E+00
  0.00000000E+00  0.00000000E+00  0.00000000E+00
  0.00000000E+00  0.00000000E+00  0.00000000E+00
  0.00000000E+00  0.00000000E+00  0.00000000E+00
  0.00000000E+00  0.00000000E+00  0.00000000E+00
  0.00000000E+00  0.00000000E+00  0.00000000E+00
  0.00000000E+00  0.00000000E+00  0.00000000E+00
  0.00000000E+00  0.00000000E+00  0.00000000E+00
  0.00000000E+00  0.00000000E+00  0.00000000E+00
  0.00000000E+00  0.00000000E+00  0.00000000E+00
  0.00000000E+00  0.00000000E+00  0.00000000E+00
  0.00000000E+00  0.00000000E+00  0.00000000E+00
  0.00000000E+00  0.00000000E+00  0.00000000E+00
  0.00000000E+00  0.00000000E+00  0.00000000E+00
  0.00000000E+00  0.00000000E+00  0.00000000E+00
  0.00000000E+00  0.00000000E+00  0.00000000E+00
  0.00000000E+00  0.00000000E+00  0.00000000E+00
  0.00000000E+00  0.00000000E+00  0.00000000E+00
  0.00000000E+00  0.00000000E+00  0.00000000E+00
  0.00000000E+00  0.00000000E+00  0.00000000E+00
  0.00000000E+00  0.00000000E+00  0.00000000E+00
  0.00000000E+00  0.00000000E+00  0.00000000E+00
  0.00000000E+00  0.00000000E+00  0.00000000E+00
  0.00000000E+00  0.00000000E+00  0.00000000E+00
  0.00000000E+00  0.00000000E+00  0.00000000E+00
  0.00000000E+00  0.00000000E+00  0.00000000E+00
  0.00000000E+00  0.00000000E+00  0.00000000E+00
  0.00000000E+00  0.00000000E+00  0.00000000E+00
  0.00000000E+00  0.00000000E+00  0.00000000E+00
  0.00000000E+00  0.00000000E+00  0.00000000E+00
  0.00000000E+00  0.00000000E+00  0.00000000E+00
  0.00000000E+00  0.00000000E+00  0.00000000E+00
  0.00000000E+00  0.00000000E+00  0.00000000E+00
  0.00000000E+00  0.00000000E+00  0.00000000E+00
  0.00000000E+00  0.00000000E+00  0.00000000E+00
  0.00000000E+00  0.00000000E+00  0.00000000E+00
  0.00000000E+00  0.00000000E+00  0.00000000E+00
  0.00000000E+00  0.00000000E+00  0.00000000E+00
  0.00000000E+00  0.00000000E+00  0.00000000E+00
  0.00000000E+00  0.00000000E+00  0.00000000E+00
  0.00000000E+00  0.00000000E+00  0.00000000E+00
  0.00000000E+00  0.00000000E+00  0.00000000E+00
  0.00000000E+00  0.00000000E+00  0.00000000E+00
  0.00000000E+00  0.00000000E+00  0.00000000E+00
  0.00000000E+00  0.00000000E+00  0.00000000E+00
  0.00000000E+00  0.00000000E+00  0.00000000E+00
  0.00000000E+00  0.00000000E+00  0.00000000E+00
  0.00000000E+00  0.00000000E+00  0.00000000E+00
  0.00000000E+00  0.00000000E+00  0.00000000E+00
  0.00000000E+00  0.00000000E+00  0.00000000E+00
  0.00000000E+00  0.00000000E+00  0.00000000E+00
  0.00000000E+00  0.00000000E+00  0.00000000E+00
  0.00000000E+00  0.00000000E+00  0.00000000E+00
  0.00000000E+00  0.00000000E+00  0.00000000E+00
  0.00000000E+00  0.00000000E+00  0.00000000E+00
  0.00000000E+00  0.00000000E+00  0.00000000E+00
  0.00000000E+00  0.00000000E+00  0.00000000E+00
  0.00000000E+00  0.00000000E+00  0.00000000E+00
  0.00000000E+00  0.00000000E+00  0.00000000E+00
  0.00000000E+00  0.00000000E+00  0.00000000E+00
  0.00000000E+00  0.00000000E+00  0.00000000E+00
  0.00000000E+00  0.00000000E+00  0.00000000E+00
  0.00000000E+00  0.00000000E+00  0.00000000E+00
  0.00000000E+00  0.00000000E+00  0.00000000E+00
  0.00000000E+00  0.00000000E+00  0.00000000E+00
  0.00000000E+00  0.00000000E+00  0.00000000E+00
  0.00000000E+00  0.00000000E+00  0.00000000E+00
  0.00000000E+00  0.00000000E+00  0.00000000E+00
  0.00000000E+00  0.00000000E+00  0.00000000E+00
  0.00000000E+00  0.00000000E+00  0.00000000E+00
  0.00000000E+00  0.00000000E+00  0.00000000E+00
  0.00000000E+00  0.00000000E+00  0.00000000E+00
  0.00000000E+00  0.00000000E+00  0.00000000E+00
  0.00000000E+00  0.00000000E+00  0.00000000E+00
  0.00000000E+00  0.00000000E+00  0.00000000E+00
  0.00000000E+00  0.00000000E+00  0.00000000E+00
  0.00000000E+00  0.00000000E+00  0.00000000E+00
  0.00000000E+00  0.00000000E+00  0.00000000E+00
  0.00000000E+00  0.00000000E+00  0.00000000E+00
  0.00000000E+00  0.00000000E+00  0.00000000E+00
  0.00000000E+00  0.00000000E+00  0.00000000E+00
  0.00000000E+00  0.00000000E+00  0.00000000E+00
  0.00000000E+00  0.00000000E+00  0.00000000E+00
  0.00000000E+00  0.00000000E+00  0.00000000E+00
  0.00000000E+00  0.00000000E+00  0.00000000E+00
  0.00000000E+00  0.00000000E+00  0.00000000E+00
  0.00000000E+00  0.00000000E+00  0.00000000E+00
  0.00000000E+00  0.00000000E+00  0.00000000E+00
  0.00000000E+00  0.00000000E+00  0.00000000E+00
  0.00000000E+00  0.00000000E+00  0.00000000E+00
  0.00000000E+00  0.00000000E+00  0.00000000E+00
  0.00000000E+00  0.00000000E+00  0.00000000E+00
  0.00000000E+00  0.00000000E+00  0.00000000E+00
  0.00000000E+00  0.00000000E+00  0.00000000E+00
  0.00000000E+00  0.00000000E+00  0.00000000E+00
  0.00000000E+00  0.00000000E+00  0.00000000E+00
  0.00000000E+00  0.00000000E+00  0.00000000E+00
  0.00000000E+00  0.00000000E+00  0.00000000E+00
  0.00000000E+00  0.00000000E+00  0.00000000E+00
  0.00000000E+00  0.00000000E+00  0.00000000E+00
  0.00000000E+00  0.00000000E+00  0.00000000E+00
  0.00000000E+00  0.00000000E+00  0.00000000E+00
  0.00000000E+00  0.00000000E+00  0.00000000E+00
  0.00000000E+00  0.00000000E+00  0.00000000E+00
  0.00000000E+00  0.00000000E+00  0.00000000E+00
  0.00000000E+00  0.00000000E+00  0.00000000E+00
  0.00000000E+00  0.00000000E+00  0.00000000E+00
  0.00000000E+00  0.00000000E+00  0.00000000E+00
  0.00000000E+00  0.00000000E+00  0.00000000E+00
  0.00000000E+00  0.00000000E+00  0.00000000E+00
  0.00000000E+00  0.00000000E+00  0.00000000E+00
  0.00000000E+00  0.00000000E+00  0.00000000E+00
  0.00000000E+00  0.00000000E+00  0.00000000E+00
  0.00000000E+00  0.00000000E+00  0.00000000E+00
  0.00000000E+00  0.00000000E+00  0.00000000E+00
  0.00000000E+00  0.00000000E+00  0.00000000E+00
  0.00000000E+00  0.00000000E+00  0.00000000E+00
  0.00000000E+00  0.00000000E+00  0.00000000E+00
  0.00000000E+00  0.00000000E+00  0.00000000E+00
  0.00000000E+00  0.00000000E+00  0.00000000E+00
  0.00000000E+00  0.00000000E+00  0.00000000E+00
  0.00000000E+00  0.00000000E+00  0.00000000E+00
  0.00000000E+00  0.00000000E+00  0.00000000E+00
  0.00000000E+00  0.00000000E+00  0.00000000E+00
  0.00000000E+00  0.00000000E+00  0.00000000E+00
  0.00000000E+00  0.00000000E+00  0.00000000E+00
  0.00000000E+00  0.00000000E+00  0.00000000E+00
  0.00000000E+00  0.00000000E+00  0.00000000E+00
  0.00000000E+00  0.00000000E+00  0.00000000E+00
