generated by phonopy                    
    1.000000000000000     
     7.5279019260256392    4.3462362034240023    6.1465061841591755
    -7.5279019260256375    4.3462362034240023    6.1465061841591755
    -0.0000000000000013   -8.6924724068480099    6.1465061841591746
   Si   C 
     1   214
Direct
  0.0000000000000000 -0.0000000000000000 -0.0000000000000000
  0.2052370566970127  0.2052370566970127  0.0390711965826249
  0.2071980661727618  0.2071980661727618  0.3732355457427515
  0.2088001456739728  0.2088001456739728  0.7070940568324355
  0.2085141423664486  0.5408830583102218  0.0415351611356837
  0.2082100101335441  0.5407231209661867  0.3747196032163845
  0.2087816154268471  0.5415121202081064  0.7078359463532026
  0.2109237272073185  0.8711189760490133  0.0418058186650993
  0.2083616189481110  0.8741420186292523  0.3752365244859559
  0.2106315088155703  0.8745720644996239  0.7062426764736476
  0.5408830583102218  0.2085141423664486  0.0415351611356837
  0.5407231209661867  0.2082100101335441  0.3747196032163845
  0.5415121202081064  0.2087816154268471  0.7078359463532026
  0.5417267620333948  0.5417267620333948  0.0418515556364457
  0.5414326493934692  0.5414326493934692  0.3751313710046678
  0.5421362814878583  0.5421362814878654  0.7084030813712238
  0.5418758348622714  0.8750431824080361  0.0419750527554750
  0.5413318792281342  0.8747533797615282  0.3758157400778643
  0.5428223247169529  0.8753748854941338  0.7089152727809223
  0.8711189760490133  0.2109237272073185  0.0418058186650993
  0.8741420186292523  0.2083616189481110  0.3752365244859559
  0.8745720644996239  0.2106315088155703  0.7062426764736476
  0.8750431824080361  0.5418758348622714  0.0419750527554750
  0.8747533797615282  0.5413318792281342  0.3758157400778643
  0.8753748854941338  0.5428223247169529  0.7089152727809223
  0.8738221047958249  0.8738221047958249  0.0521318468487276
  0.8746842113588619  0.8746842113588619  0.3758562320904096
  0.8769229982564132  0.8769229982564132  0.7106213543114167
  0.9576826644790932  0.9576826644790932  0.2923031813061157
  0.9589850186085777  0.9589850186085777  0.6254449957443460
  0.9576826644790932  0.2923031813061157  0.9576826644790932
  0.9571520626661955  0.2909435458617326  0.2909435458617326
  0.9582868989393489  0.2929632016221281  0.6237420932871578
  0.9589850186085705  0.6254449957443460  0.9589850186085777
  0.9582868989393489  0.6237420932871578  0.2929632016221281
  0.9588332185348066  0.6257574467683682  0.6257574467683682
  0.2923031813061157  0.9576826644790932  0.9576826644790932
  0.2909435458617326  0.9571520626661955  0.2909435458617326
  0.2929632016221281  0.9582868989393489  0.6237420932871578
  0.2909435458617326  0.2909435458617326  0.9571520626661955
  0.2906086102109722  0.2906086102109722  0.2906086102109722
  0.2918341486147166  0.2918341486147166  0.6239394090966868
  0.2929632016221281  0.6237420932871578  0.9582868989393489
  0.2918341486147166  0.6239394090966868  0.2918341486147166
  0.2922165660613177  0.6249057561714066  0.6249057561714066
  0.6254449957443460  0.9589850186085777  0.9589850186085777
  0.6237420932871578  0.9582868989393489  0.2929632016221281
  0.6257574467683682  0.9588332185348066  0.6257574467683682
  0.6237420932871578  0.2929632016221281  0.9582868989393489
  0.6239394090966868  0.2918341486147166  0.2918341486147166
  0.6249057561714066  0.2922165660613177  0.6249057561714066
  0.6257574467683682  0.6257574467683682  0.9588332185348066
  0.6249057561714066  0.6249057561714066  0.2922165660613177
  0.6256368235727328  0.6256368235727328  0.6256368235727328
  0.2052370566970127  0.0390711965826249  0.2052370566970127
  0.2085141423664486  0.0415351611356837  0.5408830583102218
  0.2109237272073185  0.0418058186650993  0.8711189760490133
  0.2071980661727618  0.3732355457427515  0.2071980661727618
  0.2082100101335441  0.3747196032163845  0.5407231209661867
  0.2083616189481110  0.3752365244859559  0.8741420186292523
  0.2088001456739728  0.7070940568324355  0.2088001456739728
  0.2087816154268471  0.7078359463532026  0.5415121202081064
  0.2106315088155703  0.7062426764736476  0.8745720644996239
  0.5408830583102218  0.0415351611356837  0.2085141423664486
  0.5417267620333948  0.0418515556364457  0.5417267620333948
  0.5418758348622714  0.0419750527554750  0.8750431824080361
  0.5407231209661867  0.3747196032163845  0.2082100101335441
  0.5414326493934692  0.3751313710046678  0.5414326493934692
  0.5413318792281342  0.3758157400778643  0.8747533797615282
  0.5415121202081064  0.7078359463532026  0.2087816154268471
  0.5421362814878583  0.7084030813712238  0.5421362814878583
  0.5428223247169529  0.7089152727809223  0.8753748854941338
  0.8711189760490133  0.0418058186650993  0.2109237272073185
  0.8750431824080361  0.0419750527554750  0.5418758348622714
  0.8738221047958249  0.0521318468487276  0.8738221047958249
  0.8741420186292523  0.3752365244859559  0.2083616189481110
  0.8747533797615282  0.3758157400778643  0.5413318792281342
  0.8746842113588619  0.3758562320904096  0.8746842113588619
  0.8745720644996239  0.7062426764736476  0.2106315088155703
  0.8753748854941338  0.7089152727809223  0.5428223247169529
  0.8769229982564132  0.7106213543114167  0.8769229982564132
  0.9478681531512724  0.1261778952041751  0.1261778952041751
  0.9580249472445250  0.1249568175919639  0.4581241651377287
  0.9581941813349009  0.1288810239509867  0.7890762727926814
  0.9580249472445250  0.4581241651377287  0.1249568175919639
  0.9581484443635543  0.4582732379666052  0.4582732379666052
  0.9584648388643164  0.4591169416897783  0.7914858576335514
  0.9581941813349009  0.7890762727926814  0.1288810239509867
  0.9584648388643164  0.7914858576335514  0.4591169416897783
  0.9609288034173752  0.7947629433029871  0.7947629433029871
  0.2893786456885832  0.1230770017435869  0.1230770017435869
  0.2910847272190779  0.1246251145058662  0.4571776752830472
  0.2937573235263524  0.1254279355003761  0.7893684911844296
  0.2910847272190779  0.4571776752830472  0.1246251145058662
  0.2915969186287763  0.4578637185121417  0.4578637185121417
  0.2921640536467974  0.4584878797918936  0.7912183845731530
  0.2937573235263524  0.7893684911844296  0.1254279355003761
  0.2921640536467974  0.7912183845731530  0.4584878797918936
  0.2929059431675645  0.7911998543260269  0.7911998543260269
  0.6241437679095904  0.1253157886411382  0.1253157886411382
  0.6241842599221356  0.1252466202384718  0.4586681207718660
  0.6247634755140441  0.1258579813707476  0.7916383810518890
  0.6241842599221356  0.4586681207718660  0.1252466202384718
  0.6248686289953322  0.4585673506065309  0.4585673506065309
  0.6252803967836152  0.4592768790338134  0.7917899898664559
  0.6247634755140441  0.7916383810518890  0.1258579813707476
  0.6252803967836152  0.7917899898664559  0.4592768790338134
  0.6267644542572484  0.7928019338272382  0.7928019338272382
  0.0390711965826249  0.2052370566970127  0.2052370566970127
  0.0415351611356837  0.2085141423664486  0.5408830583102218
  0.0418058186650993  0.2109237272073185  0.8711189760490133
  0.0415351611356837  0.5408830583102218  0.2085141423664486
  0.0418515556364457  0.5417267620333948  0.5417267620333948
  0.0419750527554750  0.5418758348622714  0.8750431824080361
  0.0418058186650993  0.8711189760490133  0.2109237272073185
  0.0419750527554750  0.8750431824080361  0.5418758348622714
  0.0521318468487276  0.8738221047958249  0.8738221047958249
  0.3732355457427515  0.2071980661727618  0.2071980661727618
  0.3747196032163845  0.2082100101335441  0.5407231209661867
  0.3752365244859559  0.2083616189481110  0.8741420186292523
  0.3747196032163845  0.5407231209661867  0.2082100101335441
  0.3751313710046607  0.5414326493934692  0.5414326493934692
  0.3758157400778643  0.5413318792281342  0.8747533797615282
  0.3752365244859559  0.8741420186292523  0.2083616189481110
  0.3758157400778643  0.8747533797615282  0.5413318792281342
  0.3758562320904096  0.8746842113588619  0.8746842113588619
  0.7070940568324355  0.2088001456739728  0.2088001456739728
  0.7078359463532026  0.2087816154268471  0.5415121202081064
  0.7062426764736476  0.2106315088155703  0.8745720644996239
  0.7078359463532026  0.5415121202081064  0.2087816154268471
  0.7084030813712238  0.5421362814878654  0.5421362814878583
  0.7089152727809223  0.5428223247169529  0.8753748854941338
  0.7062426764736476  0.8745720644996239  0.2106315088155703
  0.7089152727809223  0.8753748854941338  0.5428223247169529
  0.7106213543114167  0.8769229982564132  0.8769229982564132
  0.1261778952041751  0.9478681531512724  0.1261778952041751
  0.1249568175919639  0.9580249472445250  0.4581241651377287
  0.1288810239509867  0.9581941813349009  0.7890762727926814
  0.1230770017435869  0.2893786456885832  0.1230770017435869
  0.1246251145058662  0.2910847272190779  0.4571776752830472
  0.1254279355003761  0.2937573235263524  0.7893684911844296
  0.1253157886411382  0.6241437679095904  0.1253157886411382
  0.1252466202384718  0.6241842599221356  0.4586681207718660
  0.1258579813707476  0.6247634755140441  0.7916383810518890
  0.4581241651377287  0.9580249472445250  0.1249568175919639
  0.4582732379666052  0.9581484443635543  0.4582732379666052
  0.4591169416897783  0.9584648388643164  0.7914858576335514
  0.4571776752830472  0.2910847272190779  0.1246251145058662
  0.4578637185121417  0.2915969186287763  0.4578637185121417
  0.4584878797918936  0.2921640536467974  0.7912183845731530
  0.4586681207718660  0.6241842599221356  0.1252466202384718
  0.4585673506065309  0.6248686289953393  0.4585673506065309
  0.4592768790338134  0.6252803967836152  0.7917899898664559
  0.7890762727926814  0.9581941813349009  0.1288810239509867
  0.7914858576335514  0.9584648388643164  0.4591169416897783
  0.7947629433029871  0.9609288034173752  0.7947629433029871
  0.7893684911844296  0.2937573235263524  0.1254279355003761
  0.7912183845731530  0.2921640536467974  0.4584878797918936
  0.7911998543260269  0.2929059431675645  0.7911998543260269
  0.7916383810518890  0.6247634755140441  0.1258579813707476
  0.7917899898664559  0.6252803967836152  0.4592768790338134
  0.7928019338272382  0.6267644542572484  0.7928019338272382
  0.0410149813914223  0.0410149813914294  0.3745550042556540
  0.0423173355209068  0.0423173355209068  0.7076968186938842
  0.0410149813914223  0.3745550042556540  0.0410149813914223
  0.0411667814651934  0.3742425532316319  0.3742425532316319
  0.0417131010606510  0.3762579067128423  0.7070367983778717
  0.0423173355209068  0.7076968186938842  0.0423173355209068
  0.0417131010606510  0.7070367983778717  0.3762579067128423
  0.0428479373338045  0.7090564541382676  0.7090564541382676
  0.3745550042556540  0.0410149813914223  0.0410149813914223
  0.3742425532316319  0.0411667814651934  0.3742425532316319
  0.3762579067128423  0.0417131010606510  0.7070367983778717
  0.3742425532316319  0.3742425532316319  0.0411667814651934
  0.3743631764272672  0.3743631764272672  0.3743631764272672
  0.3750942438285935  0.3750942438285935  0.7077834339386823
  0.3762579067128423  0.7070367983778717  0.0417131010606510
  0.3750942438285935  0.7077834339386823  0.3750942438285935
  0.3760605909033131  0.7081658513852833  0.7081658513852833
  0.7076968186938842  0.0423173355209068  0.0423173355209068
  0.7070367983778717  0.0417131010606510  0.3762579067128423
  0.7090564541382676  0.0428479373338045  0.7090564541382676
  0.7070367983778717  0.3762579067128423  0.0417131010606510
  0.7077834339386823  0.3750942438285935  0.3750942438285935
  0.7081658513852833  0.3760605909033131  0.7081658513852833
  0.7090564541382676  0.7090564541382676  0.0428479373338045
  0.7081658513852833  0.7081658513852833  0.3760605909033131
  0.7093913897890277  0.7093913897890277  0.7093913897890277
  0.1261778952041751  0.1261778952041751  0.9478681531512724
  0.1230770017435869  0.1230770017435869  0.2893786456885832
  0.1253157886411382  0.1253157886411382  0.6241437679095904
  0.1249568175919639  0.4581241651377287  0.9580249472445250
  0.1246251145058662  0.4571776752830472  0.2910847272190779
  0.1252466202384718  0.4586681207718660  0.6241842599221356
  0.1288810239509867  0.7890762727926814  0.9581941813349009
  0.1254279355003761  0.7893684911844296  0.2937573235263524
  0.1258579813707476  0.7916383810518890  0.6247634755140441
  0.4581241651377287  0.1249568175919639  0.9580249472445250
  0.4571776752830472  0.1246251145058662  0.2910847272190779
  0.4586681207718660  0.1252466202384718  0.6241842599221356
  0.4582732379666052  0.4582732379666052  0.9581484443635543
  0.4578637185121417  0.4578637185121417  0.2915969186287763
  0.4585673506065309  0.4585673506065309  0.6248686289953393
  0.4591169416897783  0.7914858576335514  0.9584648388643164
  0.4584878797918936  0.7912183845731530  0.2921640536467974
  0.4592768790338134  0.7917899898664559  0.6252803967836152
  0.7890762727926814  0.1288810239509867  0.9581941813349009
  0.7893684911844296  0.1254279355003761  0.2937573235263524
  0.7916383810518890  0.1258579813707476  0.6247634755140441
  0.7914858576335514  0.4591169416897783  0.9584648388643164
  0.7912183845731530  0.4584878797918936  0.2921640536467974
  0.7917899898664559  0.4592768790338134  0.6252803967836152
  0.7947629433029871  0.7947629433029871  0.9609288034173752
  0.7911998543260269  0.7911998543260269  0.2929059431675645
  0.7928019338272382  0.7928019338272382  0.6267644542572484
 
  0.00000000E+00  0.00000000E+00  0.00000000E+00
  0.00000000E+00  0.00000000E+00  0.00000000E+00
  0.00000000E+00  0.00000000E+00  0.00000000E+00
  0.00000000E+00  0.00000000E+00  0.00000000E+00
  0.00000000E+00  0.00000000E+00  0.00000000E+00
  0.00000000E+00  0.00000000E+00  0.00000000E+00
  0.00000000E+00  0.00000000E+00  0.00000000E+00
  0.00000000E+00  0.00000000E+00  0.00000000E+00
  0.00000000E+00  0.00000000E+00  0.00000000E+00
  0.00000000E+00  0.00000000E+00  0.00000000E+00
  0.00000000E+00  0.00000000E+00  0.00000000E+00
  0.00000000E+00  0.00000000E+00  0.00000000E+00
  0.00000000E+00  0.00000000E+00  0.00000000E+00
  0.00000000E+00  0.00000000E+00  0.00000000E+00
  0.00000000E+00  0.00000000E+00  0.00000000E+00
  0.00000000E+00  0.00000000E+00  0.00000000E+00
  0.00000000E+00  0.00000000E+00  0.00000000E+00
  0.00000000E+00  0.00000000E+00  0.00000000E+00
  0.00000000E+00  0.00000000E+00  0.00000000E+00
  0.00000000E+00  0.00000000E+00  0.00000000E+00
  0.00000000E+00  0.00000000E+00  0.00000000E+00
  0.00000000E+00  0.00000000E+00  0.00000000E+00
  0.00000000E+00  0.00000000E+00  0.00000000E+00
  0.00000000E+00  0.00000000E+00  0.00000000E+00
  0.00000000E+00  0.00000000E+00  0.00000000E+00
  0.00000000E+00  0.00000000E+00  0.00000000E+00
  0.00000000E+00  0.00000000E+00  0.00000000E+00
  0.00000000E+00  0.00000000E+00  0.00000000E+00
  0.00000000E+00  0.00000000E+00  0.00000000E+00
  0.00000000E+00  0.00000000E+00  0.00000000E+00
  0.00000000E+00  0.00000000E+00  0.00000000E+00
  0.00000000E+00  0.00000000E+00  0.00000000E+00
  0.00000000E+00  0.00000000E+00  0.00000000E+00
  0.00000000E+00  0.00000000E+00  0.00000000E+00
  0.00000000E+00  0.00000000E+00  0.00000000E+00
  0.00000000E+00  0.00000000E+00  0.00000000E+00
  0.00000000E+00  0.00000000E+00  0.00000000E+00
  0.00000000E+00  0.00000000E+00  0.00000000E+00
  0.00000000E+00  0.00000000E+00  0.00000000E+00
  0.00000000E+00  0.00000000E+00  0.00000000E+00
  0.00000000E+00  0.00000000E+00  0.00000000E+00
  0.00000000E+00  0.00000000E+00  0.00000000E+00
  0.00000000E+00  0.00000000E+00  0.00000000E+00
  0.00000000E+00  0.00000000E+00  0.00000000E+00
  0.00000000E+00  0.00000000E+00  0.00000000E+00
  0.00000000E+00  0.00000000E+00  0.00000000E+00
  0.00000000E+00  0.00000000E+00  0.00000000E+00
  0.00000000E+00  0.00000000E+00  0.00000000E+00
  0.00000000E+00  0.00000000E+00  0.00000000E+00
  0.00000000E+00  0.00000000E+00  0.00000000E+00
  0.00000000E+00  0.00000000E+00  0.00000000E+00
  0.00000000E+00  0.00000000E+00  0.00000000E+00
  0.00000000E+00  0.00000000E+00  0.00000000E+00
  0.00000000E+00  0.00000000E+00  0.00000000E+00
  0.00000000E+00  0.00000000E+00  0.00000000E+00
  0.00000000E+00  0.00000000E+00  0.00000000E+00
  0.00000000E+00  0.00000000E+00  0.00000000E+00
  0.00000000E+00  0.00000000E+00  0.00000000E+00
  0.00000000E+00  0.00000000E+00  0.00000000E+00
  0.00000000E+00  0.00000000E+00  0.00000000E+00
  0.00000000E+00  0.00000000E+00  0.00000000E+00
  0.00000000E+00  0.00000000E+00  0.00000000E+00
  0.00000000E+00  0.00000000E+00  0.00000000E+00
  0.00000000E+00  0.00000000E+00  0.00000000E+00
  0.00000000E+00  0.00000000E+00  0.00000000E+00
  0.00000000E+00  0.00000000E+00  0.00000000E+00
  0.00000000E+00  0.00000000E+00  0.00000000E+00
  0.00000000E+00  0.00000000E+00  0.00000000E+00
  0.00000000E+00  0.00000000E+00  0.00000000E+00
  0.00000000E+00  0.00000000E+00  0.00000000E+00
  0.00000000E+00  0.00000000E+00  0.00000000E+00
  0.00000000E+00  0.00000000E+00  0.00000000E+00
  0.00000000E+00  0.00000000E+00  0.00000000E+00
  0.00000000E+00  0.00000000E+00  0.00000000E+00
  0.00000000E+00  0.00000000E+00  0.00000000E+00
  0.00000000E+00  0.00000000E+00  0.00000000E+00
  0.00000000E+00  0.00000000E+00  0.00000000E+00
  0.00000000E+00  0.00000000E+00  0.00000000E+00
  0.00000000E+00  0.00000000E+00  0.00000000E+00
  0.00000000E+00  0.00000000E+00  0.00000000E+00
  0.00000000E+00  0.00000000E+00  0.00000000E+00
  0.00000000E+00  0.00000000E+00  0.00000000E+00
  0.00000000E+00  0.00000000E+00  0.00000000E+00
  0.00000000E+00  0.00000000E+00  0.00000000E+00
  0.00000000E+00  0.00000000E+00  0.00000000E+00
  0.00000000E+00  0.00000000E+00  0.00000000E+00
  0.00000000E+00  0.00000000E+00  0.00000000E+00
  0.00000000E+00  0.00000000E+00  0.00000000E+00
  0.00000000E+00  0.00000000E+00  0.00000000E+00
  0.00000000E+00  0.00000000E+00  0.00000000E+00
  0.00000000E+00  0.00000000E+00  0.00000000E+00
  0.00000000E+00  0.00000000E+00  0.00000000E+00
  0.00000000E+00  0.00000000E+00  0.00000000E+00
  0.00000000E+00  0.00000000E+00  0.00000000E+00
  0.00000000E+00  0.00000000E+00  0.00000000E+00
  0.00000000E+00  0.00000000E+00  0.00000000E+00
  0.00000000E+00  0.00000000E+00  0.00000000E+00
  0.00000000E+00  0.00000000E+00  0.00000000E+00
  0.00000000E+00  0.00000000E+00  0.00000000E+00
  0.00000000E+00  0.00000000E+00  0.00000000E+00
  0.00000000E+00  0.00000000E+00  0.00000000E+00
  0.00000000E+00  0.00000000E+00  0.00000000E+00
  0.00000000E+00  0.00000000E+00  0.00000000E+00
  0.00000000E+00  0.00000000E+00  0.00000000E+00
  0.00000000E+00  0.00000000E+00  0.00000000E+00
  0.00000000E+00  0.00000000E+00  0.00000000E+00
  0.00000000E+00  0.00000000E+00  0.00000000E+00
  0.00000000E+00  0.00000000E+00  0.00000000E+00
  0.00000000E+00  0.00000000E+00  0.00000000E+00
  0.00000000E+00  0.00000000E+00  0.00000000E+00
  0.00000000E+00  0.00000000E+00  0.00000000E+00
  0.00000000E+00  0.00000000E+00  0.00000000E+00
  0.00000000E+00  0.00000000E+00  0.00000000E+00
  0.00000000E+00  0.00000000E+00  0.00000000E+00
  0.00000000E+00  0.00000000E+00  0.00000000E+00
  0.00000000E+00  0.00000000E+00  0.00000000E+00
  0.00000000E+00  0.00000000E+00  0.00000000E+00
  0.00000000E+00  0.00000000E+00  0.00000000E+00
  0.00000000E+00  0.00000000E+00  0.00000000E+00
  0.00000000E+00  0.00000000E+00  0.00000000E+00
  0.00000000E+00  0.00000000E+00  0.00000000E+00
  0.00000000E+00  0.00000000E+00  0.00000000E+00
  0.00000000E+00  0.00000000E+00  0.00000000E+00
  0.00000000E+00  0.00000000E+00  0.00000000E+00
  0.00000000E+00  0.00000000E+00  0.00000000E+00
  0.00000000E+00  0.00000000E+00  0.00000000E+00
  0.00000000E+00  0.00000000E+00  0.00000000E+00
  0.00000000E+00  0.00000000E+00  0.00000000E+00
  0.00000000E+00  0.00000000E+00  0.00000000E+00
  0.00000000E+00  0.00000000E+00  0.00000000E+00
  0.00000000E+00  0.00000000E+00  0.00000000E+00
  0.00000000E+00  0.00000000E+00  0.00000000E+00
  0.00000000E+00  0.00000000E+00  0.00000000E+00
  0.00000000E+00  0.00000000E+00  0.00000000E+00
  0.00000000E+00  0.00000000E+00  0.00000000E+00
  0.00000000E+00  0.00000000E+00  0.00000000E+00
  0.00000000E+00  0.00000000E+00  0.00000000E+00
  0.00000000E+00  0.00000000E+00  0.00000000E+00
  0.00000000E+00  0.00000000E+00  0.00000000E+00
  0.00000000E+00  0.00000000E+00  0.00000000E+00
  0.00000000E+00  0.00000000E+00  0.00000000E+00
  0.00000000E+00  0.00000000E+00  0.00000000E+00
  0.00000000E+00  0.00000000E+00  0.00000000E+00
  0.00000000E+00  0.00000000E+00  0.00000000E+00
  0.00000000E+00  0.00000000E+00  0.00000000E+00
  0.00000000E+00  0.00000000E+00  0.00000000E+00
  0.00000000E+00  0.00000000E+00  0.00000000E+00
  0.00000000E+00  0.00000000E+00  0.00000000E+00
  0.00000000E+00  0.00000000E+00  0.00000000E+00
  0.00000000E+00  0.00000000E+00  0.00000000E+00
  0.00000000E+00  0.00000000E+00  0.00000000E+00
  0.00000000E+00  0.00000000E+00  0.00000000E+00
  0.00000000E+00  0.00000000E+00  0.00000000E+00
  0.00000000E+00  0.00000000E+00  0.00000000E+00
  0.00000000E+00  0.00000000E+00  0.00000000E+00
  0.00000000E+00  0.00000000E+00  0.00000000E+00
  0.00000000E+00  0.00000000E+00  0.00000000E+00
  0.00000000E+00  0.00000000E+00  0.00000000E+00
  0.00000000E+00  0.00000000E+00  0.00000000E+00
  0.00000000E+00  0.00000000E+00  0.00000000E+00
  0.00000000E+00  0.00000000E+00  0.00000000E+00
  0.00000000E+00  0.00000000E+00  0.00000000E+00
  0.00000000E+00  0.00000000E+00  0.00000000E+00
  0.00000000E+00  0.00000000E+00  0.00000000E+00
  0.00000000E+00  0.00000000E+00  0.00000000E+00
  0.00000000E+00  0.00000000E+00  0.00000000E+00
  0.00000000E+00  0.00000000E+00  0.00000000E+00
  0.00000000E+00  0.00000000E+00  0.00000000E+00
  0.00000000E+00  0.00000000E+00  0.00000000E+00
  0.00000000E+00  0.00000000E+00  0.00000000E+00
  0.00000000E+00  0.00000000E+00  0.00000000E+00
  0.00000000E+00  0.00000000E+00  0.00000000E+00
  0.00000000E+00  0.00000000E+00  0.00000000E+00
  0.00000000E+00  0.00000000E+00  0.00000000E+00
  0.00000000E+00  0.00000000E+00  0.00000000E+00
  0.00000000E+00  0.00000000E+00  0.00000000E+00
  0.00000000E+00  0.00000000E+00  0.00000000E+00
  0.00000000E+00  0.00000000E+00  0.00000000E+00
  0.00000000E+00  0.00000000E+00  0.00000000E+00
  0.00000000E+00  0.00000000E+00  0.00000000E+00
  0.00000000E+00  0.00000000E+00  0.00000000E+00
  0.00000000E+00  0.00000000E+00  0.00000000E+00
  0.00000000E+00  0.00000000E+00  0.00000000E+00
  0.00000000E+00  0.00000000E+00  0.00000000E+00
  0.00000000E+00  0.00000000E+00  0.00000000E+00
  0.00000000E+00  0.00000000E+00  0.00000000E+00
  0.00000000E+00  0.00000000E+00  0.00000000E+00
  0.00000000E+00  0.00000000E+00  0.00000000E+00
  0.00000000E+00  0.00000000E+00  0.00000000E+00
  0.00000000E+00  0.00000000E+00  0.00000000E+00
  0.00000000E+00  0.00000000E+00  0.00000000E+00
  0.00000000E+00  0.00000000E+00  0.00000000E+00
  0.00000000E+00  0.00000000E+00  0.00000000E+00
  0.00000000E+00  0.00000000E+00  0.00000000E+00
  0.00000000E+00  0.00000000E+00  0.00000000E+00
  0.00000000E+00  0.00000000E+00  0.00000000E+00
  0.00000000E+00  0.00000000E+00  0.00000000E+00
  0.00000000E+00  0.00000000E+00  0.00000000E+00
  0.00000000E+00  0.00000000E+00  0.00000000E+00
  0.00000000E+00  0.00000000E+00  0.00000000E+00
  0.00000000E+00  0.00000000E+00  0.00000000E+00
  0.00000000E+00  0.00000000E+00  0.00000000E+00
  0.00000000E+00  0.00000000E+00  0.00000000E+00
  0.00000000E+00  0.00000000E+00  0.00000000E+00
  0.00000000E+00  0.00000000E+00  0.00000000E+00
  0.00000000E+00  0.00000000E+00  0.00000000E+00
  0.00000000E+00  0.00000000E+00  0.00000000E+00
  0.00000000E+00  0.00000000E+00  0.00000000E+00
  0.00000000E+00  0.00000000E+00  0.00000000E+00
  0.00000000E+00  0.00000000E+00  0.00000000E+00
  0.00000000E+00  0.00000000E+00  0.00000000E+00
  0.00000000E+00  0.00000000E+00  0.00000000E+00
  0.00000000E+00  0.00000000E+00  0.00000000E+00
  0.00000000E+00  0.00000000E+00  0.00000000E+00
  0.00000000E+00  0.00000000E+00  0.00000000E+00
